Read MPS format model from file dat/rmp/DER_96_8192_40.mps
Reading time = 1.45 seconds
: 8288 rows, 49440 columns, 4255324 nonzeros
Gurobi Optimizer version 9.0.0 build v9.0.0rc2 (linux64)
Optimize a model with 8288 rows, 49440 columns and 4255324 nonzeros
Model fingerprint: 0xd3819dca
Coefficient statistics:
  Matrix range     [4e-05, 1e+01]
  Objective range  [8e-01, 1e+03]
  Bounds range     [5e+04, 5e+04]
  RHS range        [1e+00, 1e+00]
Ordering time: 0.02s

Barrier statistics:
 AA' NZ     : 7.463e+05
 Factor NZ  : 8.363e+05 (roughly 30 MBytes of memory)
 Factor Ops : 8.760e+07 (less than 1 second per iteration)
 Threads    : 1

                  Objective                Residual
Iter       Primal          Dual         Primal    Dual     Compl     Time
   0   2.60825196e+09 -2.92426959e+08  3.09e+07 2.46e-02  7.61e+05     1s
   1   6.03135850e+07 -4.46769139e+07  6.81e+05 3.64e-12  1.76e+04     1s
   2   4.58402305e+06 -1.19725580e+07  5.02e+04 3.64e-12  1.48e+03     2s
   3   1.38938621e+05 -6.12355954e+06  8.28e+02 3.64e-12  1.42e+02     2s
   4   5.71599137e+04 -7.75269433e+05  1.41e-10 3.64e-12  1.68e+01     2s
   5   5.67832851e+04  4.17361563e+04  2.35e-10 3.64e-12  3.04e-01     3s
   6   5.64729527e+04  5.36282699e+04  3.56e-10 2.91e-11  5.74e-02     3s
   7   5.59983877e+04  5.50381333e+04  3.43e-10 5.46e-12  1.94e-02     3s
   8   5.59160210e+04  5.52455899e+04  5.35e-10 5.46e-12  1.35e-02     4s
   9   5.58426695e+04  5.53591061e+04  4.19e-10 3.64e-12  9.76e-03     4s
  10   5.57726780e+04  5.54729713e+04  4.04e-10 1.82e-12  6.05e-03     4s
  11   5.57172998e+04  5.55097573e+04  6.58e-10 3.64e-12  4.19e-03     5s
  12   5.56570104e+04  5.55397432e+04  1.06e-09 3.64e-12  2.37e-03     5s
  13   5.56113636e+04  5.55595985e+04  1.64e-09 3.64e-12  1.05e-03     5s
  14   5.56006468e+04  5.55673120e+04  1.98e-09 3.64e-12  6.73e-04     6s
  15   5.55937165e+04  5.55731289e+04  2.93e-09 1.82e-12  4.16e-04     6s
  16   5.55915893e+04  5.55746448e+04  2.23e-09 3.64e-12  3.42e-04     7s
  17   5.55865977e+04  5.55763676e+04  6.82e-09 1.82e-12  2.07e-04     7s
  18   5.55840005e+04  5.55776736e+04  6.60e-09 3.64e-12  1.28e-04     7s
  19   5.55825765e+04  5.55781259e+04  6.87e-09 1.82e-12  8.98e-05     8s
  20   5.55817137e+04  5.55784951e+04  6.44e-09 1.82e-12  6.50e-05     8s
  21   5.55810010e+04  5.55788347e+04  6.16e-09 1.82e-12  4.37e-05     8s
  22   5.55798174e+04  5.55790036e+04  1.28e-08 3.64e-12  1.64e-05     9s
  23   5.55795700e+04  5.55790697e+04  1.61e-08 1.82e-12  1.01e-05     9s
  24   5.55793809e+04  5.55791059e+04  1.56e-08 1.82e-12  5.55e-06     9s
  25   5.55793126e+04  5.55791204e+04  1.04e-08 1.82e-12  3.88e-06    10s
  26   5.55792372e+04  5.55791431e+04  2.08e-08 3.64e-12  1.90e-06    10s
  27   5.55791944e+04  5.55791467e+04  6.22e-08 1.82e-12  9.64e-07    10s
  28   5.55791738e+04  5.55791489e+04  9.82e-08 1.82e-12  5.03e-07    10s
  29   5.55791673e+04  5.55791500e+04  9.61e-08 1.82e-12  3.50e-07    11s
  30   5.55791567e+04  5.55791504e+04  1.54e-06 3.64e-12  1.28e-07    11s
  31   5.55791524e+04  5.55791506e+04  5.66e-07 3.64e-12  3.67e-08    11s
  32   5.55791507e+04  5.55791506e+04  3.37e-06 3.64e-12  1.57e-09    12s
  33   5.55791506e+04  5.55791506e+04  1.41e-06 3.64e-12  4.85e-11    12s
  34   5.55791506e+04  5.55791506e+04  1.19e-05 3.64e-12  1.58e-12    12s
  35   5.55791506e+04  5.55791506e+04  1.12e-07 3.64e-12  1.58e-15    13s

Barrier solved model in 35 iterations and 12.57 seconds
Optimal objective 5.55791506e+04

Solve time: 12.576227514
Barrier iterations: 35
